NAME: line_38_71
TYPE: TSP
COMMENT: srandom_38_71
DIMENSION: 38
EDGE_WEIGHT_TYPE: EUC_2D
NODE_COORD_SECTION
1 1126 699
2 2073 4846
3 1996 1399
4 3367 1052
5 1265 1348
6 4749 4463
7 3653 674
8 4789 2742
9 4989 1335
10 263 4629
11 2474 2819
12 4367 3223
13 702 4376
14 2679 2550
15 956 709
16 2993 4195
17 3950 1155
18 4214 1597
19 662 1815
20 2482 1607
21 4460 509
22 1735 4838
23 3508 2842
24 3858 2692
25 148 1430
26 777 1651
27 4037 4429
28 2150 1216
29 1152 654
30 4516 3751
31 2181 1083
32 4203 999
33 605 488
34 3779 4291
35 500 4226
36 3448 3538
37 1471 4331
38 1928 3371
